unsat
(:added-eqs                       13609
 :arith-eq-adapter                155
 :arith-bound-propagations-lp     384
 :arith-branch                    2
 :arith-conflicts                 1141
 :arith-diseq                     3968
 :arith-fixed-eqs                 1032
 :arith-gcd-calls                 99
 :arith-grobner-calls             318
 :arith-grobner-conflicts         9
 :arith-horner-calls              212
 :arith-horner-cross-nested-forms 506
 :arith-lower                     6416
 :arith-make-feasible             6643
 :arith-max-columns               109
 :arith-max-rows                  48
 :arith-nla-add-bounds            48
 :arith-nla-lemmas                848
 :arith-nla-propagate-bounds      166
 :arith-nla-propagate-eq          3549
 :arith-nra-calls                 740
 :arith-offset-eqs                1443
 :arith-patches                   99
 :arith-patches-success           96
 :arith-upper                     8973
 :binary-propagations             26641
 :conflicts                       1174
 :decisions                       23155
 :del-clause                      1528
 :elim-unconstrained              12
 :final-checks                    1049
 :max-memory                      29.46
 :memory                          18.82
 :minimized-lits                  3327
 :mk-bool-var                     847
 :mk-clause                       1623
 :mk-clause-binary                467
 :num-allocs                      2858112699
 :num-checks                      1
 :propagations                    49051
 :restarts                        10
 :rlimit-count                    7734017
 :sat-backjumps                   7097
 :sat-conflicts                   7098
 :sat-decisions                   15659
 :sat-del-clause                  19667
 :sat-elim-bool-vars-res          2606
 :sat-elim-clauses                5241
 :sat-elim-literals               4966
 :sat-minimized-lits              154986
 :sat-mk-clause-2ary              9383
 :sat-mk-clause-3ary              4040
 :sat-mk-clause-nary              28265
 :sat-mk-var                      5472
 :sat-probing-assigned            47
 :sat-propagations-2ary           635934
 :sat-propagations-nary           1232325
 :sat-restarts                    683
 :sat-scc-elim-binary             54
 :sat-scc-elim-vars               107
 :sat-subs-resolution             218
 :sat-subs-resolution-dyn         3738
 :sat-subsumed                    2683
 :sat-units                       348
 :time                            2.13
 :total-time                      2.14)
